(set-info :source |printed by MathSAT|)
(declare-fun |!{b.2}| () (Array Int Int))
(declare-fun |!{b.2}.next| () (Array Int Int))
(declare-fun |!{N}| () Int)
(declare-fun |!{N}.next| () Int)
(declare-fun |!{i}| () Int)
(declare-fun |!{i}.next| () Int)
(declare-fun |!{a.1}| () (Array Int Int))
(declare-fun |!{a.1}.next| () (Array Int Int))
(declare-fun |!pc[0]| () Bool)
(declare-fun |!pc[0].next| () Bool)
(declare-fun |!pc[1]| () Bool)
(declare-fun |!pc[1].next| () Bool)
(declare-fun |!pc[2]| () Bool)
(declare-fun |!pc[2].next| () Bool)
(declare-fun |%{a.1}#1| () (Array Int Int))
(declare-fun |%{b.2}#1| () (Array Int Int))
(declare-fun nondet_int<0> () Int)
(declare-fun nondet_char<0> () Int)
(declare-fun |%{b.2}#2| () (Array Int Int))
(define-fun .def_33 () Bool (! |!pc[2]| :next |!pc[2].next|))
(define-fun .def_38 () Bool (not .def_33))
(define-fun .def_31 () Bool (! |!pc[1]| :next |!pc[1].next|))
(define-fun .def_36 () Bool (not .def_31))
(define-fun .def_29 () Bool (! |!pc[0]| :next |!pc[0].next|))
(define-fun .def_35 () Bool (not .def_29))
(define-fun .def_37 () Bool (and .def_35 .def_36))
(define-fun .def_39 () Bool (! (and .def_37 .def_38) :init true))
(define-fun .def_162 () Bool (and .def_29 .def_36))
(define-fun .def_163 () Bool (and .def_38 .def_162))
(define-fun .def_111 () Bool (not |!pc[0].next|))
(define-fun .def_112 () Bool (and |!pc[1].next| .def_111))
(define-fun .def_59 () Bool (not |!pc[2].next|))
(define-fun .def_113 () Bool (and .def_59 .def_112))
(define-fun .def_166 () Bool (and .def_113 .def_163))
(define-fun .def_10 () Int (! |!{N}| :next |!{N}.next|))
(define-fun .def_84 () Bool (= .def_10 |!{N}.next|))
(define-fun .def_8 () (Array Int Int) (! |!{b.2}| :next |!{b.2}.next|))
(define-fun .def_82 () Bool (= .def_8 |!{b.2}.next|))
(define-fun .def_92 () Bool (and .def_82 .def_84))
(define-fun .def_52 () Bool (= |!{i}.next| 0))
(define-fun .def_159 () Bool (and .def_52 .def_92))
(define-fun .def_14 () (Array Int Int) (! |!{a.1}| :next |!{a.1}.next|))
(define-fun .def_88 () Bool (= .def_14 |!{a.1}.next|))
(define-fun .def_160 () Bool (and .def_88 .def_159))
(define-fun .def_12 () Int (! |!{i}| :next |!{i}.next|))
(define-fun .def_63 () Bool (<= .def_10 .def_12))
(define-fun .def_161 () Bool (and .def_63 .def_160))
(define-fun .def_167 () Bool (and .def_161 .def_166))
(define-fun .def_57 () Bool (not |!pc[1].next|))
(define-fun .def_58 () Bool (and |!pc[0].next| .def_57))
(define-fun .def_60 () Bool (and .def_58 .def_59))
(define-fun .def_164 () Bool (and .def_60 .def_163))
(define-fun .def_152 () Bool (= nondet_char<0> 10))
(define-fun .def_154 () Bool (not .def_152))
(define-fun .def_139 () Bool (= .def_8 |%{b.2}#2|))
(define-fun .def_155 () Bool (and .def_139 .def_154))
(define-fun .def_133 () (Array Int Int) (store .def_8 .def_12 20))
(define-fun .def_140 () Bool (= .def_133 |%{b.2}#2|))
(define-fun .def_153 () Bool (and .def_140 .def_152))
(define-fun .def_156 () Bool (or .def_153 .def_155))
(define-fun .def_129 () (Array Int Int) (store .def_14 .def_12 nondet_char<0>))
(define-fun .def_148 () Bool (= |!{a.1}.next| .def_129))
(define-fun .def_145 () Bool (= |!{b.2}.next| |%{b.2}#2|))
(define-fun .def_146 () Bool (and .def_84 .def_145))
(define-fun .def_94 () Int (* (- 1) |!{i}.next|))
(define-fun .def_95 () Int (+ .def_12 .def_94))
(define-fun .def_96 () Bool (= .def_95 (- 1)))
(define-fun .def_147 () Bool (and .def_96 .def_146))
(define-fun .def_149 () Bool (and .def_147 .def_148))
(define-fun .def_157 () Bool (and .def_149 .def_156))
(define-fun .def_64 () Bool (not .def_63))
(define-fun .def_158 () Bool (and .def_64 .def_157))
(define-fun .def_165 () Bool (and .def_158 .def_164))
(define-fun .def_168 () Bool (or .def_165 .def_167))
(define-fun .def_123 () Bool (and .def_29 .def_31))
(define-fun .def_124 () Bool (and .def_38 .def_123))
(define-fun .def_125 () Bool (and .def_113 .def_124))
(define-fun .def_97 () Bool (and .def_92 .def_96))
(define-fun .def_98 () Bool (and .def_88 .def_97))
(define-fun .def_126 () Bool (and .def_98 .def_125))
(define-fun .def_117 () Bool (and .def_57 .def_111))
(define-fun .def_118 () Bool (and |!pc[2].next| .def_117))
(define-fun .def_105 () Bool (and .def_31 .def_35))
(define-fun .def_106 () Bool (and .def_38 .def_105))
(define-fun .def_119 () Bool (and .def_106 .def_118))
(define-fun .def_101 () Bool (and .def_63 .def_82))
(define-fun .def_102 () Bool (and .def_84 .def_101))
(define-fun .def_86 () Bool (= .def_12 |!{i}.next|))
(define-fun .def_103 () Bool (and .def_86 .def_102))
(define-fun .def_104 () Bool (and .def_88 .def_103))
(define-fun .def_120 () Bool (and .def_104 .def_119))
(define-fun .def_114 () Bool (and .def_106 .def_113))
(define-fun .def_69 () Int (select .def_8 .def_12))
(define-fun .def_71 () Bool (= .def_69 20))
(define-fun .def_65 () Int (select .def_14 .def_12))
(define-fun .def_67 () Bool (= .def_65 10))
(define-fun .def_76 () Bool (and .def_67 .def_71))
(define-fun .def_68 () Bool (not .def_67))
(define-fun .def_79 () Bool (or .def_68 .def_76))
(define-fun .def_99 () Bool (and .def_79 .def_98))
(define-fun .def_100 () Bool (and .def_64 .def_99))
(define-fun .def_115 () Bool (and .def_100 .def_114))
(define-fun .def_107 () Bool (and |!pc[0].next| |!pc[1].next|))
(define-fun .def_108 () Bool (and .def_59 .def_107))
(define-fun .def_109 () Bool (and .def_106 .def_108))
(define-fun .def_72 () Bool (not .def_71))
(define-fun .def_83 () Bool (and .def_72 .def_82))
(define-fun .def_85 () Bool (and .def_83 .def_84))
(define-fun .def_87 () Bool (and .def_85 .def_86))
(define-fun .def_89 () Bool (and .def_87 .def_88))
(define-fun .def_90 () Bool (and .def_67 .def_89))
(define-fun .def_91 () Bool (and .def_64 .def_90))
(define-fun .def_110 () Bool (and .def_91 .def_109))
(define-fun .def_116 () Bool (or .def_110 .def_115))
(define-fun .def_121 () Bool (or .def_116 .def_120))
(define-fun .def_61 () Bool (and .def_39 .def_60))
(define-fun .def_54 () Bool (= |!{a.1}.next| |%{a.1}#1|))
(define-fun .def_50 () Bool (= |!{N}.next| nondet_int<0>))
(define-fun .def_49 () Bool (= |!{b.2}.next| |%{b.2}#1|))
(define-fun .def_51 () Bool (and .def_49 .def_50))
(define-fun .def_53 () Bool (and .def_51 .def_52))
(define-fun .def_55 () Bool (and .def_53 .def_54))
(define-fun .def_47 () Bool (<= nondet_int<0> 0))
(define-fun .def_48 () Bool (not .def_47))
(define-fun .def_56 () Bool (and .def_48 .def_55))
(define-fun .def_62 () Bool (and .def_56 .def_61))
(define-fun .def_122 () Bool (or .def_62 .def_121))
(define-fun .def_127 () Bool (or .def_122 .def_126))
(define-fun .def_169 () Bool (! (or .def_127 .def_168) :trans true))
(define-fun .def_170 () Bool (! (not .def_124) :invar-property 0))
(assert true)
